RT is False
Default write of storage_offers_DA.csv just to have a file (but constraint should be inactive)
Reading model...
...model read.
creating competitive generators file...
...competitive generators recorded.
Loading data...
.. day-ahead data with real-time VRE data read.
Compiling instance...
...instance created.
Creating Offer Mitigation (model will solve as dispatch if TRUE)...
NOTE: storage offers will not be mitigated
...storage offer mitigation file created
Converting model to MPEC...
...converted
NOTE: initial MIP solve with only storage competitive to get feasible solution
Solving...

Welcome to IBM(R) ILOG(R) CPLEX(R) Interactive Optimizer 12.9.0.0
  with Simplex, Mixed Integer & Barrier Optimizers
5725-A06 5725-A29 5724-Y48 5724-Y49 5724-Y54 5724-Y55 5655-Y21
Copyright IBM Corp. 1988, 2019.  All Rights Reserved.

Type 'help' for a list of available commands.
Type 'help' followed by a command name for more
information on commands.

CPLEX> Logfile 'cplex.log' closed.
Logfile 'C:\Users\llavin\Desktop\test919\logs\tmp3eli8poc.cplex.log' open.
CPLEX> New value for parallel optimization mode: -1
CPLEX> New value for mixed integer optimality gap tolerance: 0.01
CPLEX> New value for integrality tolerance: 1e-09
CPLEX> New value for feasibility tolerance: 0.01
CPLEX> New value for deterministic time limit in ticks: 100000
CPLEX> Problem 'C:\Users\llavin\Desktop\test919\logs\tmpsmbte12a.pyomo.lp' read.
Read time = 0.22 sec. (13.86 ticks)
CPLEX> Problem name         : C:\Users\llavin\Desktop\test919\logs\tmpsmbte12a.pyomo.lp
Objective sense      : Maximize
Variables            :   53321  [Nneg: 1,  Box: 21806,  Free: 4416,
                                 Binary: 27098]
Objective nonzeros   :    8980
Linear constraints   :  122164  [Less: 40983,  Greater: 58612,  Equal: 22569]
  Nonzeros           :  288505
  RHS nonzeros       :   66982

Variables            : Min LB: -5000.000        Max UB: 1000000.       
Objective nonzeros   : Min   : 0.1750000        Max   : 772.4167       
Linear constraints   :
  Nonzeros           : Min   : 0.1750000        Max   : 1000000.       
  RHS nonzeros       : Min   : 0.1750000        Max   : 1000000.       
CPLEX> CPXPARAM_Parallel                                -1
CPXPARAM_Simplex_Tolerances_Feasibility          0.01
CPXPARAM_DetTimeLimit                            100000
CPXPARAM_MIP_Tolerances_MIPGap                   0.01
CPXPARAM_MIP_Tolerances_Integrality              1.0000000000000001e-09
Tried aggregator 3 times.
MIP Presolve eliminated 88078 rows and 18934 columns.
MIP Presolve added 3378 rows and 0 columns.
MIP Presolve modified 24502 coefficients.
Aggregator did 12852 substitutions.
Reduced MIP has 24612 rows, 20979 columns, and 68969 nonzeros.
Reduced MIP has 8293 binaries, 0 generals, 0 SOSs, and 0 indicators.
Presolve time = 0.30 sec. (173.97 ticks)
Probing fixed 431 vars, tightened 2926 bounds.
Probing time = 1.25 sec. (907.22 ticks)
Tried aggregator 2 times.
MIP Presolve eliminated 960 rows and 863 columns.
MIP Presolve modified 2190 coefficients.
Aggregator did 59 substitutions.
Reduced MIP has 23593 rows, 20057 columns, and 66004 nonzeros.
Reduced MIP has 7862 binaries, 0 generals, 0 SOSs, and 0 indicators.
Presolve time = 0.11 sec. (67.31 ticks)
Probing time = 0.05 sec. (15.57 ticks)
Clique table members: 6182.
MIP emphasis: balance optimality and feasibility.
MIP search method: dynamic search.
Parallel mode: opportunistic, using up to 32 threads.
Root relaxation solution time = 0.39 sec. (293.02 ticks)

        Nodes                                         Cuts/
   Node  Left     Objective  IInf  Best Integer    Best Bound    ItCnt     Gap

      0     0     1035.3040  1686                   1035.3040     6874         
      0     0     1035.3040   680                   Cuts: 562     7168         
      0     0     1034.8206   534                   Cuts: 308     7367         
      0     0     1034.8206   465                   Cuts: 185     7468         
      0     0     1033.1128   434                    Cuts: 89     7515         
      0     0     1028.4235   397                    Cuts: 74     7562         
      0     0     1028.4235   384                    Cuts: 44     7590         
      0     0     1028.4235   364                    Cuts: 52     7610         
      0     0     1028.4235   359                    Cuts: 25     7622         
      0    18    infeasible                         Covers: 1     8043         
Elapsed time = 9.75 sec. (6422.14 ticks, tree = 0.02 MB, solutions = 0)
*    33+   84                        -6557.8701      956.6446           114.59%
    683   108    -2709.0083     7    -1534.6268      956.6446    10978  162.34%
   1196   126      561.5896     1    -1534.6268      956.6446    17327  162.34%
   1644   289      783.9722    11    -1502.1252      956.6446    18101  163.69%
   1931   466      135.1636     7    -1502.1252      956.6446    18763  163.69%
   2099   571        cutoff          -1502.1252      956.6446    19298  163.69%
   2247   578        cutoff          -1502.1252      956.6446    19390  163.69%
   2382   579        cutoff          -1502.1252      956.6446    19442  163.69%
   2507   588      955.7006     9    -1502.1252      956.6446    19535  163.69%
   2882   595      955.7006    10    -1502.1252      956.6446    19685  163.69%
Elapsed time = 21.22 sec. (9357.38 ticks, tree = 5.62 MB, solutions = 4)
   3379   613      871.5774     4    -1502.1252      956.6446    20011  163.69%
   4659   638        cutoff          -1502.1252      956.6446    20174  163.69%
   5482  1186     -266.3107     1    -1502.1252      956.6446    22576  163.69%
   6015   830     -105.5408     3    -1502.1252      956.6446    20999  163.69%
   6508  1626        cutoff          -1502.1252      956.6446    24935  163.69%
   6764  2035     -807.6721     2    -1502.1252      956.6446    27463  163.69%
   7001  2159      956.6446     1    -1502.1252      956.6446    28139  163.69%
   7186  2377      956.6446     2    -1502.1252      956.6446    29537  163.69%
   7350  2392      956.6446     1    -1502.1252      956.6446    29633  163.69%
   7527  2174        cutoff          -1502.1252      956.6446    28154  163.69%
Elapsed time = 43.00 sec. (18932.02 ticks, tree = 19.62 MB, solutions = 4)
   7666  2308        cutoff          -1502.1252      956.6446    29098  163.69%
   7813  2394      956.6446     1    -1502.1252      956.6446    29642  163.69%
   7957  2354      784.9162     1    -1502.1252      956.6446    29394  163.69%
   8066  2405        cutoff          -1502.1252      956.6446    29702  163.69%
   8149  2500      956.6446     1    -1502.1252      956.6446    30480  163.69%
   8216  2471      956.6446     3    -1502.1252      956.6446    30266  163.69%
   8266  2500      956.6446     1    -1502.1252      956.6446    30483  163.69%
   8285  2511      956.6446     1    -1502.1252      956.6446    30549  163.69%
   8287  2577    infeasible          -1502.1252      932.3474    36749  162.07%
   9283    59        6.2637     1    -1502.1252      817.7688    38252  154.44%
Elapsed time = 68.39 sec. (31738.31 ticks, tree = 0.09 MB, solutions = 4)
  10995    49     -383.8065     9    -1502.1252      815.9958    39443  154.32%
  13075  1281     -612.2726     2    -1502.1252      733.9481    54014  148.86%
  15255  2041        cutoff          -1502.1252      721.2894    62842  148.02%
  18258  1924      102.3202     6    -1502.1252      704.3985    61637  146.89%
  20987  3572        cutoff          -1502.1252      692.2967    79193  146.09%
  23286  5985      247.8546    10    -1502.1252      643.2023    97964  142.82%
  26456  5159    infeasible          -1502.1252      614.2889    92316  140.89%
  29969  6868     -570.8925     4    -1502.1252      550.7500   103657  136.66%
  33807  9581       20.8867     1    -1502.1252      492.3603   122220  132.78%
  38077  9296     -187.3596     3    -1502.1252      464.7315   120648  130.94%
Elapsed time = 121.16 sec. (41277.18 ticks, tree = 67.52 MB, solutions = 5)
  42560 16730      254.9065     7    -1502.1252      464.7315   162752  130.94%
  46976 14015      214.4766     4     -157.3673      424.9057   147936  370.01%
  50912 14752      -70.6176     3     -157.3673      404.4300   207444  357.00%
  54194 19182      -35.9773     3     -157.3673      386.3796   242319  345.53%
  57110 17887      -23.6103     6     -157.3673      359.6471   233378  328.54%
  59267 21470      116.5725     6     -157.3673      358.7023   255611  327.94%
  61223 24757      130.2929    14     -157.3673      340.6229   282643  316.45%
  63392 23491        cutoff           -157.3673      340.6229   271130  316.45%
  65037 24482      -90.7281     7     -157.3673      340.6229   280547  316.45%
  65658 24832      227.3865    10     -157.3673      340.6229   283397  316.45%
Elapsed time = 151.70 sec. (50820.25 ticks, tree = 187.43 MB, solutions = 5)
  65756 28106    infeasible           -157.3673      290.3687   313153  284.52%
  67887   416      140.5092     4     -157.3673      290.3687   320258  284.52%
  71219  1823       87.7975    10     -157.3673      237.4010   347752  250.86%
  75146  3104    infeasible           -157.3673      -15.6907   412222   90.03%
  81024    89        cutoff           -157.3673     -138.5927   446422   11.93%

Cover cuts applied:  2
Implied bound cuts applied:  19
Flow cuts applied:  10
Mixed integer rounding cuts applied:  12
Gomory fractional cuts applied:  18

Root node processing (before b&c):
  Real time             =    8.70 sec. (6413.02 ticks)
Parallel b&c, 32 threads:
  Real time             =  161.08 sec. (50727.65 ticks)
  Sync time (average)   =    3.86 sec.
  Wait time (average)   =    0.26 sec.
                          ------------
Total (root+branch&cut) =  169.78 sec. (57140.66 ticks)

Solution pool: 5 solutions saved.

MIP - Integer optimal solution:  Objective = -1.5736730678e+02
Solution time =  169.81 sec.  Iterations = 446511  Nodes = 81025
Deterministic time = 57140.82 ticks  (336.49 ticks/sec)

CPLEX> Incumbent solution written to file 'C:\Users\llavin\Desktop\test919\logs\tmpdqsd_wf1.cplex.sol'.
CPLEX> NOTE: no warmstart specified for MIP iteration, default behavior is true
NOTE: resolving with all competitive generators using storage-only solution to warmstart
Solving...

Welcome to IBM(R) ILOG(R) CPLEX(R) Interactive Optimizer 12.9.0.0
  with Simplex, Mixed Integer & Barrier Optimizers
5725-A06 5725-A29 5724-Y48 5724-Y49 5724-Y54 5724-Y55 5655-Y21
Copyright IBM Corp. 1988, 2019.  All Rights Reserved.

Type 'help' for a list of available commands.
Type 'help' followed by a command name for more
information on commands.

CPLEX> Logfile 'cplex.log' closed.
Logfile 'C:\Users\llavin\Desktop\test919\logs\tmpk4bi9_u6.cplex.log' open.
CPLEX> New value for parallel optimization mode: -1
CPLEX> New value for mixed integer optimality gap tolerance: 0.01
CPLEX> New value for integrality tolerance: 1e-09
CPLEX> New value for feasibility tolerance: 0.01
CPLEX> New value for deterministic time limit in ticks: 100000
CPLEX> Problem 'C:\Users\llavin\Desktop\test919\logs\tmpxvxvxu7t.pyomo.lp' read.
Read time = 0.24 sec. (13.88 ticks)
CPLEX> MIP start file 'C:\Users\llavin\Desktop\test919\logs\tmpu8lwq26a.cplex.mst' read.
CPLEX> Problem name         : C:\Users\llavin\Desktop\test919\logs\tmpxvxvxu7t.pyomo.lp
Objective sense      : Maximize
Variables            :   54041  [Nneg: 1,  Box: 22526,  Free: 4416,
                                 Binary: 27098]
Objective nonzeros   :    9700
Linear constraints   :  122164  [Less: 40983,  Greater: 58612,  Equal: 22569]
  Nonzeros           :  288505
  RHS nonzeros       :   66982

Variables            : Min LB: -5000.000        Max UB: 1000000.       
Objective nonzeros   : Min   : 0.1750000        Max   : 772.4167       
Linear constraints   :
  Nonzeros           : Min   : 0.1750000        Max   : 1000000.       
  RHS nonzeros       : Min   : 0.1750000        Max   : 1000000.       
CPLEX> CPXPARAM_Parallel                                -1
CPXPARAM_Simplex_Tolerances_Feasibility          0.01
CPXPARAM_DetTimeLimit                            100000
CPXPARAM_MIP_Tolerances_MIPGap                   0.01
CPXPARAM_MIP_Tolerances_Integrality              1.0000000000000001e-09
Warning:  No solution found from 1 MIP starts.
Retaining values of one MIP start for possible repair.
Tried aggregator 3 times.
MIP Presolve eliminated 88078 rows and 19654 columns.
MIP Presolve added 3378 rows and 0 columns.
MIP Presolve modified 24502 coefficients.
Aggregator did 12852 substitutions.
Reduced MIP has 24612 rows, 20979 columns, and 68969 nonzeros.
Reduced MIP has 8293 binaries, 0 generals, 0 SOSs, and 0 indicators.
Presolve time = 0.30 sec. (174.34 ticks)
Probing fixed 431 vars, tightened 2926 bounds.
Probing time = 1.25 sec. (907.22 ticks)
Tried aggregator 2 times.
MIP Presolve eliminated 960 rows and 863 columns.
MIP Presolve modified 2190 coefficients.
Aggregator did 59 substitutions.
Reduced MIP has 23593 rows, 20057 columns, and 66004 nonzeros.
Reduced MIP has 7862 binaries, 0 generals, 0 SOSs, and 0 indicators.
Presolve time = 0.09 sec. (67.31 ticks)
Probing time = 0.03 sec. (15.57 ticks)
Clique table members: 6182.
MIP emphasis: balance optimality and feasibility.
MIP search method: dynamic search.
Parallel mode: opportunistic, using up to 32 threads.
Root relaxation solution time = 0.38 sec. (293.02 ticks)

        Nodes                                         Cuts/
   Node  Left     Objective  IInf  Best Integer    Best Bound    ItCnt     Gap

      0     0     1035.3040  1686                   1035.3040     6874         
      0     0     1035.3040   680                   Cuts: 562     7168         
      0     0     1034.8206   534                   Cuts: 308     7367         
      0     0     1034.8206   465                   Cuts: 185     7468         
      0     0     1033.1128   434                    Cuts: 89     7515         
      0     0     1028.4235   397                    Cuts: 74     7562         
      0     0     1028.4235   384                    Cuts: 44     7590         
      0     0     1028.4235   364                    Cuts: 52     7610         
      0     0     1028.4235   359                    Cuts: 25     7622         
Repair heuristic found nothing.
      0    12    infeasible                         Covers: 1     7866         
Elapsed time = 9.92 sec. (6459.22 ticks, tree = 0.02 MB, solutions = 0)
    507   146      157.5290     5                    956.6446     9887         
*   546+  201                        -2276.8036      956.6446           142.02%
   1145   143    -1334.4938    12    -2276.8036      956.6446    18159  142.02%
   1551   371      951.6036     9    -2276.8036      956.6446    19738  142.02%
   2059   490      554.0951     2    -2276.8036      956.6446    20563  142.02%
   2415   738     -639.6810    10    -2276.8036      956.6446    21698  142.02%
   2664   906      414.6091     2    -2276.8036      956.6446    22661  142.02%
   2914  1048    -2177.3266     7    -2276.8036      956.6446    23355  142.02%
   3134  1069     -170.6332     4    -2276.8036      956.6446    23427  142.02%
   3924  1248    -2223.9338     2    -2276.8036      956.6446    24354  142.02%
Elapsed time = 22.27 sec. (9344.09 ticks, tree = 5.45 MB, solutions = 2)
   4776  1632     -768.9938     1    -2276.8036      956.6446    26058  142.02%
   6192  1704     -338.5419     1    -2276.8036      956.6446    26391  142.02%
   7329  2036     -338.5419     1    -2276.8036      956.6446    27768  142.02%
   7917  2308        cutoff          -2276.8036      956.6446    28882  142.02%
   8351  2725      956.6446     1    -2276.8036      956.6446    30764  142.02%
   8645  2748      952.5476     3    -2276.8036      956.6446    30865  142.02%
   8839  2974      136.1076     1    -2276.8036      956.6446    32036  142.02%
   8964  3467    -2101.2095     1    -2276.8036      956.6446    34075  142.02%
   9011  3446      952.5476     1    -2276.8036      956.6446    33958  142.02%
   9017  4014        cutoff          -2276.8036      956.6446    42110  142.02%
Elapsed time = 47.61 sec. (22167.36 ticks, tree = 34.42 MB, solutions = 2)
   9831    59    -1506.2222    21    -2276.8036      893.6262    43211  139.25%
  11312   174      215.1756     7      201.7917      893.6262    44954  342.85%
  13369   391      229.6107     5      201.7917      893.6262    50544  342.85%
  16200  1120      615.1573     7      201.7917      780.3341    59034  286.70%
  19711  2400      704.6271     8      201.7917      737.1035    68661  265.28%
  23628  5794      704.6271     8      201.7917      734.2552    94226  263.87%
  27397  6990      585.5196     6      201.7917      731.8608   112005  262.68%
  29413  8846      404.3729     4      201.7917      717.0845   134312  255.36%
  30027  9161      655.8364     7      201.7917      717.0845   137224  255.36%
  32827  9544      654.9522     6      201.7917      717.0845   142210  255.36%
Elapsed time = 100.86 sec. (31706.37 ticks, tree = 68.71 MB, solutions = 3)
  37201  9264        cutoff            201.7917      704.6271   138992  249.19%
  41446 14167      612.9239     7      201.7917      698.2112   186124  246.01%
  45898 14095      205.0628     3      201.7917      679.1864   185397  236.58%
  50336 13251        cutoff            201.7917      679.1864   176712  236.58%
  54661 15648      264.7307     3      201.7917      676.2735   201959  235.13%
  58872 21488      594.4645     7      201.7917      671.5692   275916  232.80%
  63190 19239      654.5030     9      201.7917      664.8159   247391  229.46%
  67643 19765      572.6345     6      201.7917      664.8159   254202  229.46%
  71693 22498      324.2762     2      201.7917      664.8159   289915  229.46%
  74715 23269      462.4210     4      201.7917      664.8159   297413  229.46%
Elapsed time = 141.39 sec. (41246.18 ticks, tree = 175.64 MB, solutions = 3)
  76342 22619      264.7307     3      201.7917      664.8159   291030  229.46%
  76723 29303    infeasible            201.7917      643.4113   361227  218.85%
  78964   104      258.1233     4      201.7917      643.4113   365208  218.85%

Cover cuts applied:  2
Implied bound cuts applied:  11
Flow cuts applied:  9
Mixed integer rounding cuts applied:  5
Gomory fractional cuts applied:  6

Root node processing (before b&c):
  Real time             =    8.86 sec. (6450.58 ticks)
Parallel b&c, 32 threads:
  Real time             =  143.58 sec. (39751.89 ticks)
  Sync time (average)   =    4.73 sec.
  Wait time (average)   =    0.27 sec.
                          ------------
Total (root+branch&cut) =  152.44 sec. (46202.47 ticks)

Solution pool: 3 solutions saved.

MIP - Integer optimal solution:  Objective =  2.0179170808e+02
Solution time =  152.45 sec.  Iterations = 376585  Nodes = 79547
Deterministic time = 46202.62 ticks  (303.06 ticks/sec)

CPLEX> Incumbent solution written to file 'C:\Users\llavin\Desktop\test919\logs\tmpqk7_utd4.cplex.sol'.
CPLEX> Exporting results... 
